-373.0 9.0 6.0 3.0 8.0 5.0 0.0 6.0 10.0 2.0 1.0 7.0 5.0 3.0 0.0 4.0 8.0 7.0 9.0 5.0 8.0 7.0 8.0 8.0 5.0 3.0 2.0 10.0 0.0 0.0 3.0 3.0 7.0 6.0 2.0 4.0 9.0 8.0 8.0 1.0 4.0 0.0 1.0 6.0 4.0 3.0 5.0 6.0 7.0 1.0 2.0 7.0 3.0 1.0 10.0 6.0 9.0 9.0 6.0 9.0 8.0 0.0 7.0 7.0 9.0 9.0 4.0 9.0 1.0 5.0 3.0 9.0 3.0 
9.0 -334.0 6.0 4.0 5.0 5.0 3.0 2.0 4.0 4.0 1.0 5.0 4.0 9.0 8.0 9.0 5.0 4.0 3.0 10.0 2.0 4.0 4.0 7.0 9.0 7.0 4.0 3.0 9.0 10.0 2.0 3.0 10.0 4.0 9.0 10.0 1.0 5.0 1.0 3.0 5.0 2.0 1.0 7.0 10.0 6.0 1.0 5.0 10.0 6.0 9.0 1.0 9.0 4.0 10.0 3.0 5.0 9.0 7.0 2.0 10.0 3.0 2.0 0.0 0.0 0.0 0.0 0.0 0.0 0.0 0.0 0.0 0.0 
6.0 6.0 -359.0 4.0 4.0 8.0 5.0 0.0 4.0 6.0 10.0 4.0 6.0 10.0 7.0 2.0 2.0 8.0 6.0 4.0 4.0 3.0 10.0 0.0 10.0 6.0 3.0 1.0 3.0 9.0 6.0 8.0 2.0 2.0 4.0 7.0 10.0 2.0 1.0 10.0 10.0 1.0 1.0 4.0 6.0 7.0 2.0 3.0 0.0 2.0 0.0 10.0 6.0 8.0 10.0 5.0 8.0 8.0 3.0 4.0 2.0 8.0 4.0 7.0 5.0 8.0 2.0 1.0 6.0 9.0 5.0 0.0 1.0 
3.0 4.0 4.0 -389.0 5.0 7.0 10.0 10.0 7.0 3.0 1.0 0.0 4.0 7.0 6.0 5.0 1.0 4.0 5.0 6.0 4.0 10.0 3.0 7.0 8.0 2.0 9.0 7.0 2.0 9.0 7.0 10.0 10.0 6.0 5.0 9.0 0.0 3.0 0.0 9.0 9.0 10.0 3.0 0.0 2.0 5.0 5.0 10.0 10.0 7.0 9.0 2.0 2.0 4.0 3.0 7.0 5.0 7.0 10.0 0.0 8.0 6.0 5.0 8.0 4.0 3.0 8.0 1.0 2.0 1.0 5.0 6.0 10.0 
8.0 5.0 4.0 5.0 -369.0 4.0 9.0 2.0 7.0 9.0 7.0 6.0 0.0 4.0 2.0 0.0 5.0 2.0 5.0 2.0 6.0 3.0 7.0 7.0 5.0 8.0 2.0 0.0 5.0 2.0 5.0 5.0 1.0 10.0 7.0 9.0 6.0 10.0 10.0 8.0 5.0 9.0 8.0 1.0 5.0 10.0 2.0 8.0 9.0 0.0 3.0 3.0 7.0 9.0 3.0 2.0 5.0 1.0 8.0 1.0 4.0 1.0 10.0 1.0 8.0 1.0 7.0 1.0 3.0 7.0 9.0 9.0 7.0 
5.0 5.0 8.0 7.0 4.0 -351.0 8.0 6.0 1.0 3.0 8.0 6.0 9.0 2.0 7.0 10.0 0.0 9.0 6.0 7.0 7.0 2.0 6.0 7.0 2.0 0.0 2.0 8.0 1.0 9.0 8.0 7.0 2.0 2.0 8.0 4.0 1.0 1.0 9.0 7.0 9.0 0.0 2.0 6.0 1.0 6.0 1.0 10.0 9.0 7.0 2.0 9.0 3.0 1.0 3.0 7.0 3.0 2.0 2.0 8.0 3.0 3.0 4.0 1.0 8.0 7.0 5.0 8.0 0.0 3.0 4.0 6.0 4.0 
0.0 3.0 5.0 10.0 9.0 8.0 -408.0 4.0 6.0 1.0 6.0 4.0 10.0 10.0 5.0 4.0 6.0 2.0 6.0 7.0 7.0 10.0 5.0 6.0 9.0 6.0 5.0 8.0 6.0 10.0 2.0 5.0 8.0 10.0 8.0 3.0 6.0 8.0 3.0 7.0 3.0 10.0 2.0 7.0 6.0 0.0 7.0 3.0 6.0 9.0 8.0 1.0 10.0 8.0 8.0 2.0 0.0 10.0 3.0 7.0 10.0 6.0 3.0 1.0 5.0 2.0 2.0 8.0 4.0 10.0 0.0 5.0 4.0 
6.0 2.0 0.0 10.0 2.0 6.0 4.0 -342.0 1.0 10.0 6.0 2.0 7.0 4.0 3.0 4.0 10.0 2.0 10.0 3.0 2.0 6.0 0.0 1.0 6.0 10.0 6.0 7.0 3.0 4.0 0.0 5.0 1.0 8.0 1.0 3.0 1.0 4.0 3.0 1.0 5.0 1.0 1.0 8.0 7.0 9.0 6.0 8.0 5.0 8.0 8.0 8.0 7.0 0.0 5.0 0.0 8.0 7.0 0.0 3.0 9.0 5.0 4.0 10.0 3.0 7.0 3.0 5.0 6.0 1.0 7.0 8.0 6.0 
10.0 4.0 4.0 7.0 7.0 1.0 6.0 1.0 -335.0 2.0 10.0 4.0 1.0 1.0 7.0 9.0 7.0 2.0 9.0 1.0 4.0 5.0 7.0 7.0 3.0 0.0 9.0 6.0 4.0 2.0 5.0 8.0 6.0 7.0 9.0 3.0 3.0 7.0 7.0 8.0 6.0 2.0 6.0 0.0 0.0 0.0 5.0 4.0 6.0 1.0 7.0 7.0 2.0 4.0 5.0 4.0 7.0 10.0 8.0 7.0 2.0 10.0 0.0 1.0 1.0 4.0 2.0 8.0 6.0 0.0 7.0 0.0 0.0 
2.0 4.0 6.0 3.0 9.0 3.0 1.0 10.0 2.0 -322.0 5.0 3.0 7.0 5.0 9.0 10.0 0.0 9.0 8.0 4.0 2.0 2.0 7.0 2.0 8.0 2.0 3.0 7.0 3.0 5.0 7.0 0.0 8.0 3.0 6.0 3.0 7.0 0.0 4.0 4.0 4.0 7.0 8.0 9.0 1.0 4.0 3.0 10.0 8.0 3.0 4.0 6.0 2.0 3.0 9.0 9.0 7.0 2.0 1.0 6.0 2.0 5.0 1.0 1.0 8.0 1.0 2.0 0.0 4.0 0.0 6.0 1.0 2.0 
1.0 1.0 10.0 1.0 7.0 8.0 6.0 6.0 10.0 5.0 -382.0 10.0 7.0 2.0 1.0 8.0 5.0 9.0 7.0 0.0 4.0 8.0 10.0 0.0 1.0 2.0 10.0 9.0 4.0 4.0 7.0 10.0 7.0 0.0 3.0 0.0 2.0 4.0 9.0 7.0 6.0 1.0 5.0 9.0 4.0 10.0 0.0 5.0 7.0 1.0 9.0 7.0 9.0 10.0 9.0 1.0 1.0 7.0 1.0 10.0 1.0 2.0 5.0 8.0 3.0 8.0 10.0 5.0 6.0 8.0 5.0 0.0 4.0 
7.0 5.0 4.0 0.0 6.0 6.0 4.0 2.0 4.0 3.0 10.0 -354.0 8.0 7.0 9.0 6.0 9.0 0.0 6.0 4.0 9.0 1.0 5.0 3.0 7.0 2.0 4.0 10.0 1.0 6.0 5.0 9.0 8.0 8.0 3.0 6.0 2.0 4.0 7.0 9.0 10.0 5.0 7.0 0.0 10.0 6.0 1.0 5.0 1.0 5.0 0.0 6.0 0.0 4.0 3.0 7.0 2.0 3.0 4.0 7.0 3.0 8.0 3.0 10.0 3.0 1.0 10.0 0.0 3.0 1.0 7.0 2.0 8.0 
5.0 4.0 6.0 4.0 0.0 9.0 10.0 7.0 1.0 7.0 7.0 8.0 -348.0 3.0 1.0 10.0 9.0 4.0 4.0 1.0 9.0 1.0 1.0 3.0 5.0 9.0 9.0 6.0 1.0 10.0 4.0 5.0 0.0 1.0 0.0 1.0 0.0 9.0 7.0 4.0 4.0 9.0 7.0 5.0 0.0 4.0 7.0 2.0 1.0 6.0 5.0 3.0 1.0 6.0 3.0 1.0 8.0 3.0 9.0 10.0 2.0 4.0 10.0 4.0 5.0 5.0 9.0 3.0 10.0 4.0 2.0 4.0 7.0 
3.0 9.0 10.0 7.0 4.0 2.0 10.0 4.0 1.0 5.0 2.0 7.0 3.0 -351.0 2.0 0.0 3.0 2.0 6.0 0.0 3.0 8.0 7.0 7.0 5.0 7.0 1.0 6.0 10.0 8.0 1.0 10.0 10.0 7.0 10.0 0.0 10.0 10.0 0.0 0.0 4.0 9.0 4.0 4.0 6.0 3.0 9.0 7.0 2.0 3.0 2.0 0.0 0.0 2.0 4.0 1.0 9.0 1.0 10.0 6.0 8.0 6.0 10.0 3.0 3.0 8.0 6.0 3.0 4.0 4.0 6.0 0.0 4.0 
0.0 8.0 7.0 6.0 2.0 7.0 5.0 3.0 7.0 9.0 1.0 9.0 1.0 2.0 -327.0 10.0 3.0 5.0 5.0 8.0 8.0 5.0 0.0 0.0 10.0 6.0 5.0 5.0 8.0 1.0 0.0 6.0 1.0 8.0 5.0 6.0 1.0 7.0 1.0 8.0 0.0 0.0 2.0 4.0 5.0 0.0 8.0 7.0 3.0 8.0 7.0 4.0 1.0 4.0 2.0 4.0 6.0 7.0 6.0 2.0 5.0 1.0 1.0 10.0 1.0 6.0 8.0 7.0 9.0 5.0 2.0 3.0 0.0 
4.0 9.0 2.0 5.0 0.0 10.0 4.0 4.0 9.0 10.0 8.0 6.0 10.0 0.0 10.0 -381.0 5.0 9.0 0.0 6.0 10.0 7.0 8.0 3.0 4.0 6.0 2.0 9.0 0.0 6.0 6.0 8.0 6.0 10.0 7.0 8.0 0.0 8.0 8.0 0.0 1.0 2.0 5.0 2.0 7.0 1.0 6.0 6.0 2.0 8.0 6.0 9.0 8.0 4.0 5.0 0.0 7.0 1.0 2.0 4.0 6.0 9.0 4.0 5.0 6.0 2.0 7.0 3.0 6.0 7.0 3.0 2.0 8.0 
8.0 5.0 2.0 1.0 5.0 0.0 6.0 10.0 7.0 0.0 5.0 9.0 9.0 3.0 3.0 5.0 -363.0 3.0 3.0 3.0 9.0 1.0 3.0 8.0 7.0 6.0 6.0 1.0 8.0 1.0 10.0 10.0 4.0 7.0 6.0 9.0 8.0 6.0 5.0 6.0 6.0 2.0 1.0 0.0 5.0 10.0 7.0 7.0 0.0 8.0 8.0 0.0 10.0 9.0 7.0 2.0 6.0 1.0 2.0 7.0 4.0 2.0 7.0 1.0 4.0 1.0 3.0 5.0 2.0 6.0 6.0 10.0 6.0 
7.0 4.0 8.0 4.0 2.0 9.0 2.0 2.0 2.0 9.0 9.0 0.0 4.0 2.0 5.0 9.0 3.0 -327.0 9.0 2.0 0.0 9.0 0.0 6.0 2.0 7.0 6.0 1.0 2.0 3.0 3.0 10.0 9.0 6.0 0.0 6.0 0.0 1.0 3.0 7.0 6.0 8.0 2.0 3.0 0.0 10.0 5.0 1.0 10.0 0.0 4.0 4.0 3.0 8.0 9.0 5.0 0.0 9.0 1.0 5.0 5.0 9.0 5.0 0.0 3.0 6.0 6.0 4.0 7.0 4.0 0.0 9.0 3.0 
9.0 3.0 6.0 5.0 5.0 6.0 6.0 10.0 9.0 8.0 7.0 6.0 4.0 6.0 5.0 0.0 3.0 9.0 -369.0 1.0 1.0 1.0 7.0 3.0 1.0 3.0 10.0 7.0 7.0 5.0 2.0 10.0 9.0 2.0 8.0 8.0 8.0 8.0 7.0 9.0 4.0 1.0 6.0 4.0 0.0 2.0 3.0 6.0 4.0 6.0 8.0 8.0 7.0 7.0 9.0 2.0 8.0 5.0 1.0 6.0 4.0 8.0 3.0 3.0 2.0 4.0 8.0 8.0 2.0 4.0 2.0 0.0 0.0 
5.0 10.0 4.0 6.0 2.0 7.0 7.0 3.0 1.0 4.0 0.0 4.0 1.0 0.0 8.0 6.0 3.0 2.0 1.0 -364.0 6.0 7.0 9.0 5.0 8.0 8.0 3.0 7.0 7.0 1.0 3.0 10.0 8.0 3.0 8.0 3.0 2.0 3.0 10.0 10.0 4.0 10.0 4.0 7.0 0.0 6.0 6.0 5.0 6.0 2.0 3.0 7.0 7.0 1.0 0.0 2.0 6.0 4.0 10.0 4.0 10.0 5.0 8.0 0.0 7.0 7.0 8.0 4.0 7.0 3.0 3.0 4.0 9.0 
8.0 2.0 4.0 4.0 6.0 7.0 7.0 2.0 4.0 2.0 4.0 9.0 9.0 3.0 8.0 10.0 9.0 0.0 1.0 6.0 -388.0 6.0 0.0 6.0 10.0 2.0 1.0 10.0 4.0 1.0 2.0 5.0 1.0 9.0 9.0 4.0 10.0 8.0 0.0 10.0 6.0 10.0 7.0 8.0 9.0 1.0 3.0 7.0 8.0 3.0 9.0 9.0 5.0 5.0 0.0 10.0 2.0 6.0 8.0 2.0 0.0 8.0 9.0 0.0 1.0 10.0 2.0 1.0 6.0 1.0 10.0 10.0 9.0 
7.0 4.0 3.0 10.0 3.0 2.0 10.0 6.0 5.0 2.0 8.0 1.0 1.0 8.0 5.0 7.0 1.0 9.0 1.0 7.0 6.0 -340.0 5.0 7.0 10.0 1.0 0.0 8.0 3.0 5.0 2.0 1.0 4.0 5.0 3.0 4.0 6.0 2.0 1.0 8.0 4.0 0.0 7.0 8.0 9.0 3.0 9.0 4.0 6.0 5.0 1.0 3.0 1.0 5.0 4.0 1.0 10.0 9.0 5.0 6.0 1.0 5.0 7.0 4.0 4.0 9.0 0.0 9.0 5.0 3.0 2.0 9.0 1.0 
8.0 4.0 10.0 3.0 7.0 6.0 5.0 0.0 7.0 7.0 10.0 5.0 1.0 7.0 0.0 8.0 3.0 0.0 7.0 9.0 0.0 5.0 -352.0 5.0 9.0 0.0 8.0 5.0 7.0 2.0 1.0 1.0 4.0 3.0 2.0 8.0 4.0 8.0 1.0 2.0 9.0 3.0 10.0 10.0 10.0 8.0 3.0 7.0 1.0 7.0 6.0 0.0 6.0 4.0 4.0 2.0 2.0 7.0 8.0 2.0 0.0 7.0 3.0 10.0 0.0 9.0 0.0 7.0 6.0 1.0 1.0 8.0 9.0 
8.0 7.0 0.0 7.0 7.0 7.0 6.0 1.0 7.0 2.0 0.0 3.0 3.0 7.0 0.0 3.0 8.0 6.0 3.0 5.0 6.0 7.0 5.0 -326.0 1.0 9.0 10.0 7.0 2.0 3.0 4.0 5.0 5.0 0.0 2.0 5.0 2.0 0.0 2.0 7.0 5.0 10.0 0.0 7.0 5.0 3.0 3.0 3.0 5.0 1.0 4.0 9.0 6.0 5.0 5.0 2.0 3.0 5.0 8.0 5.0 2.0 1.0 7.0 6.0 6.0 5.0 6.0 3.0 0.0 4.0 8.0 3.0 9.0 
5.0 9.0 10.0 8.0 5.0 2.0 9.0 6.0 3.0 8.0 1.0 7.0 5.0 5.0 10.0 4.0 7.0 2.0 1.0 8.0 10.0 10.0 9.0 1.0 -384.0 1.0 8.0 4.0 9.0 6.0 10.0 4.0 5.0 2.0 6.0 6.0 0.0 10.0 8.0 3.0 7.0 6.0 7.0 6.0 1.0 1.0 8.0 3.0 3.0 3.0 1.0 2.0 6.0 5.0 0.0 0.0 3.0 2.0 7.0 9.0 8.0 6.0 3.0 1.0 7.0 2.0 4.0 7.0 10.0 7.0 4.0 10.0 8.0 
3.0 7.0 6.0 2.0 8.0 0.0 6.0 10.0 0.0 2.0 2.0 2.0 9.0 7.0 6.0 6.0 6.0 7.0 3.0 8.0 2.0 1.0 0.0 9.0 1.0 -373.0 8.0 8.0 8.0 4.0 0.0 10.0 7.0 4.0 8.0 7.0 4.0 9.0 3.0 8.0 6.0 5.0 5.0 2.0 7.0 0.0 2.0 7.0 6.0 3.0 9.0 4.0 7.0 0.0 2.0 8.0 9.0 9.0 5.0 9.0 2.0 9.0 3.0 6.0 4.0 7.0 7.0 10.0 3.0 6.0 2.0 3.0 5.0 
2.0 4.0 3.0 9.0 2.0 2.0 5.0 6.0 9.0 3.0 10.0 4.0 9.0 1.0 5.0 2.0 6.0 6.0 10.0 3.0 1.0 0.0 8.0 10.0 8.0 8.0 -350.0 3.0 0.0 10.0 3.0 2.0 7.0 7.0 7.0 4.0 7.0 0.0 7.0 8.0 3.0 6.0 6.0 5.0 2.0 7.0 0.0 7.0 5.0 5.0 3.0 4.0 7.0 1.0 9.0 1.0 5.0 2.0 1.0 5.0 2.0 4.0 5.0 5.0 6.0 9.0 4.0 1.0 10.0 8.0 1.0 5.0 5.0 
10.0 3.0 1.0 7.0 0.0 8.0 8.0 7.0 6.0 7.0 9.0 10.0 6.0 6.0 5.0 9.0 1.0 1.0 7.0 7.0 10.0 8.0 5.0 7.0 4.0 8.0 3.0 -395.0 0.0 0.0 1.0 7.0 6.0 4.0 3.0 10.0 7.0 8.0 6.0 5.0 6.0 0.0 4.0 1.0 3.0 10.0 4.0 10.0 7.0 9.0 6.0 2.0 8.0 5.0 5.0 4.0 5.0 9.0 8.0 4.0 1.0 9.0 5.0 3.0 1.0 0.0 2.0 0.0 9.0 8.0 7.0 10.0 10.0 
0.0 9.0 3.0 2.0 5.0 1.0 6.0 3.0 4.0 3.0 4.0 1.0 1.0 10.0 8.0 0.0 8.0 2.0 7.0 7.0 4.0 3.0 7.0 2.0 9.0 8.0 0.0 0.0 -293.0 1.0 0.0 1.0 7.0 5.0 0.0 8.0 1.0 2.0 4.0 0.0 10.0 3.0 2.0 8.0 2.0 2.0 2.0 4.0 6.0 0.0 9.0 1.0 10.0 3.0 1.0 8.0 9.0 0.0 7.0 4.0 5.0 8.0 3.0 9.0 5.0 5.0 3.0 7.0 1.0 1.0 8.0 1.0 0.0 
0.0 10.0 9.0 9.0 2.0 9.0 10.0 4.0 2.0 5.0 4.0 6.0 10.0 8.0 1.0 6.0 1.0 3.0 5.0 1.0 1.0 5.0 2.0 3.0 6.0 4.0 10.0 0.0 1.0 -366.0 4.0 1.0 10.0 8.0 7.0 2.0 10.0 0.0 1.0 7.0 3.0 9.0 2.0 10.0 8.0 6.0 10.0 0.0 2.0 10.0 8.0 0.0 7.0 6.0 4.0 5.0 10.0 9.0 5.0 7.0 3.0 2.0 8.0 3.0 1.0 7.0 10.0 2.0 1.0 6.0 7.0 1.0 7.0 
3.0 2.0 6.0 7.0 5.0 8.0 2.0 0.0 5.0 7.0 7.0 5.0 4.0 1.0 0.0 6.0 10.0 3.0 2.0 3.0 2.0 2.0 1.0 4.0 10.0 0.0 3.0 1.0 0.0 4.0 -289.0 2.0 8.0 0.0 0.0 1.0 2.0 1.0 2.0 0.0 3.0 10.0 9.0 5.0 9.0 6.0 8.0 7.0 4.0 4.0 7.0 2.0 0.0 3.0 1.0 2.0 7.0 3.0 10.0 0.0 1.0 6.0 8.0 7.0 9.0 3.0 1.0 2.0 10.0 6.0 0.0 4.0 3.0 
3.0 3.0 8.0 10.0 5.0 7.0 5.0 5.0 8.0 0.0 10.0 9.0 5.0 10.0 6.0 8.0 10.0 10.0 10.0 10.0 5.0 1.0 1.0 5.0 4.0 10.0 2.0 7.0 1.0 1.0 2.0 -377.0 6.0 0.0 1.0 9.0 0.0 4.0 8.0 8.0 2.0 2.0 3.0 5.0 0.0 10.0 4.0 3.0 7.0 8.0 4.0 7.0 1.0 0.0 4.0 9.0 9.0 1.0 6.0 9.0 8.0 0.0 2.0 4.0 8.0 1.0 7.0 2.0 4.0 7.0 6.0 8.0 9.0 
7.0 10.0 2.0 10.0 1.0 2.0 8.0 1.0 6.0 8.0 7.0 8.0 0.0 10.0 1.0 6.0 4.0 9.0 9.0 8.0 1.0 4.0 4.0 5.0 5.0 7.0 7.0 6.0 7.0 10.0 8.0 6.0 -402.0 8.0 3.0 8.0 6.0 5.0 10.0 7.0 6.0 6.0 6.0 2.0 2.0 7.0 3.0 3.0 5.0 3.0 9.0 3.0 6.0 0.0 6.0 3.0 1.0 9.0 6.0 5.0 5.0 10.0 5.0 2.0 6.0 9.0 8.0 6.0 7.0 5.0 5.0 8.0 1.0 
6.0 4.0 2.0 6.0 10.0 2.0 10.0 8.0 7.0 3.0 0.0 8.0 1.0 7.0 8.0 10.0 7.0 6.0 2.0 3.0 9.0 5.0 3.0 0.0 2.0 4.0 7.0 4.0 5.0 8.0 0.0 0.0 8.0 -382.0 3.0 8.0 1.0 7.0 8.0 8.0 6.0 3.0 5.0 7.0 0.0 8.0 2.0 6.0 0.0 1.0 8.0 6.0 7.0 9.0 6.0 4.0 6.0 9.0 2.0 8.0 7.0 5.0 6.0 9.0 9.0 10.0 3.0 9.0 1.0 10.0 2.0 8.0 0.0 
2.0 9.0 4.0 5.0 7.0 8.0 8.0 1.0 9.0 6.0 3.0 3.0 0.0 10.0 5.0 7.0 6.0 0.0 8.0 8.0 9.0 3.0 2.0 2.0 6.0 8.0 7.0 3.0 0.0 7.0 0.0 1.0 3.0 3.0 -353.0 2.0 8.0 4.0 0.0 2.0 2.0 2.0 4.0 9.0 6.0 7.0 6.0 10.0 10.0 3.0 9.0 2.0 8.0 4.0 6.0 2.0 0.0 5.0 1.0 6.0 7.0 2.0 1.0 5.0 5.0 5.0 5.0 9.0 3.0 9.0 7.0 10.0 4.0 
4.0 10.0 7.0 9.0 9.0 4.0 3.0 3.0 3.0 3.0 0.0 6.0 1.0 0.0 6.0 8.0 9.0 6.0 8.0 3.0 4.0 4.0 8.0 5.0 6.0 7.0 4.0 10.0 8.0 2.0 1.0 9.0 8.0 8.0 2.0 -372.0 6.0 1.0 1.0 9.0 2.0 7.0 1.0 6.0 5.0 6.0 5.0 7.0 8.0 8.0 6.0 0.0 1.0 8.0 8.0 3.0 5.0 10.0 2.0 4.0 8.0 9.0 2.0 0.0 3.0 6.0 9.0 6.0 5.0 3.0 6.0 1.0 7.0 
9.0 1.0 10.0 0.0 6.0 1.0 6.0 1.0 3.0 7.0 2.0 2.0 0.0 10.0 1.0 0.0 8.0 0.0 8.0 2.0 10.0 6.0 4.0 2.0 0.0 4.0 7.0 7.0 1.0 10.0 2.0 0.0 6.0 1.0 8.0 6.0 -351.0 3.0 7.0 9.0 3.0 3.0 7.0 9.0 8.0 5.0 3.0 10.0 5.0 4.0 7.0 4.0 4.0 9.0 8.0 9.0 4.0 1.0 5.0 7.0 8.0 3.0 10.0 0.0 3.0 4.0 10.0 3.0 6.0 3.0 3.0 9.0 4.0 
8.0 5.0 2.0 3.0 10.0 1.0 8.0 4.0 7.0 0.0 4.0 4.0 9.0 10.0 7.0 8.0 6.0 1.0 8.0 3.0 8.0 2.0 8.0 0.0 10.0 9.0 0.0 8.0 2.0 0.0 1.0 4.0 5.0 7.0 4.0 1.0 3.0 -333.0 3.0 3.0 6.0 10.0 1.0 0.0 9.0 4.0 6.0 6.0 8.0 7.0 4.0 4.0 4.0 6.0 0.0 3.0 3.0 10.0 0.0 6.0 4.0 1.0 6.0 2.0 0.0 0.0 7.0 1.0 9.0 7.0 1.0 3.0 9.0 
8.0 1.0 1.0 0.0 10.0 9.0 3.0 3.0 7.0 4.0 9.0 7.0 7.0 0.0 1.0 8.0 5.0 3.0 7.0 10.0 0.0 1.0 1.0 2.0 8.0 3.0 7.0 6.0 4.0 1.0 2.0 8.0 10.0 8.0 0.0 1.0 7.0 3.0 -342.0 9.0 0.0 1.0 1.0 6.0 3.0 4.0 8.0 9.0 5.0 7.0 2.0 0.0 5.0 6.0 6.0 5.0 9.0 0.0 9.0 6.0 7.0 4.0 8.0 2.0 6.0 0.0 5.0 10.0 0.0 10.0 8.0 5.0 1.0 
1.0 3.0 10.0 9.0 8.0 7.0 7.0 1.0 8.0 4.0 7.0 9.0 4.0 0.0 8.0 0.0 6.0 7.0 9.0 10.0 10.0 8.0 2.0 7.0 3.0 8.0 8.0 5.0 0.0 7.0 0.0 8.0 7.0 8.0 2.0 9.0 9.0 3.0 9.0 -429.0 1.0 5.0 9.0 8.0 3.0 7.0 3.0 6.0 4.0 2.0 10.0 9.0 6.0 5.0 9.0 9.0 9.0 1.0 10.0 10.0 5.0 2.0 2.0 1.0 10.0 8.0 5.0 7.0 10.0 6.0 1.0 6.0 9.0 
4.0 5.0 10.0 9.0 5.0 9.0 3.0 5.0 6.0 4.0 6.0 10.0 4.0 4.0 0.0 1.0 6.0 6.0 4.0 4.0 6.0 4.0 9.0 5.0 7.0 6.0 3.0 6.0 10.0 3.0 3.0 2.0 6.0 6.0 2.0 2.0 3.0 6.0 0.0 1.0 -365.0 8.0 8.0 4.0 1.0 8.0 6.0 1.0 9.0 4.0 6.0 6.0 9.0 1.0 3.0 0.0 5.0 9.0 0.0 5.0 10.0 8.0 7.0 1.0 1.0 9.0 10.0 10.0 6.0 7.0 6.0 0.0 2.0 
0.0 2.0 1.0 10.0 9.0 0.0 10.0 1.0 2.0 7.0 1.0 5.0 9.0 9.0 0.0 2.0 2.0 8.0 1.0 10.0 10.0 0.0 3.0 10.0 6.0 5.0 6.0 0.0 3.0 9.0 10.0 2.0 6.0 3.0 2.0 7.0 3.0 10.0 1.0 5.0 8.0 -358.0 1.0 1.0 6.0 0.0 7.0 6.0 2.0 4.0 9.0 3.0 7.0 10.0 8.0 0.0 7.0 2.0 4.0 9.0 6.0 2.0 5.0 5.0 8.0 10.0 8.0 10.0 9.0 2.0 0.0 7.0 2.0 
1.0 1.0 1.0 3.0 8.0 2.0 2.0 1.0 6.0 8.0 5.0 7.0 7.0 4.0 2.0 5.0 1.0 2.0 6.0 4.0 7.0 7.0 10.0 0.0 7.0 5.0 6.0 4.0 2.0 2.0 9.0 3.0 6.0 5.0 4.0 1.0 7.0 1.0 1.0 9.0 8.0 1.0 -344.0 3.0 4.0 6.0 3.0 5.0 2.0 3.0 6.0 7.0 10.0 1.0 10.0 2.0 7.0 10.0 1.0 8.0 6.0 4.0 10.0 4.0 5.0 8.0 0.0 6.0 6.0 8.0 4.0 10.0 4.0 
6.0 7.0 4.0 0.0 1.0 6.0 7.0 8.0 0.0 9.0 9.0 0.0 5.0 4.0 4.0 2.0 0.0 3.0 4.0 7.0 8.0 8.0 10.0 7.0 6.0 2.0 5.0 1.0 8.0 10.0 5.0 5.0 2.0 7.0 9.0 6.0 9.0 0.0 6.0 8.0 4.0 1.0 3.0 -367.0 7.0 2.0 8.0 9.0 10.0 10.0 1.0 4.0 8.0 7.0 7.0 3.0 1.0 1.0 6.0 2.0 5.0 7.0 0.0 6.0 2.0 9.0 5.0 5.0 1.0 8.0 5.0 9.0 3.0 
4.0 10.0 6.0 2.0 5.0 1.0 6.0 7.0 0.0 1.0 4.0 10.0 0.0 6.0 5.0 7.0 5.0 0.0 0.0 0.0 9.0 9.0 10.0 5.0 1.0 7.0 2.0 3.0 2.0 8.0 9.0 0.0 2.0 0.0 6.0 5.0 8.0 9.0 3.0 3.0 1.0 6.0 4.0 7.0 -334.0 5.0 7.0 8.0 7.0 6.0 4.0 2.0 8.0 9.0 3.0 9.0 2.0 0.0 1.0 9.0 5.0 8.0 0.0 6.0 2.0 3.0 5.0 6.0 2.0 0.0 10.0 4.0 5.0 
3.0 6.0 7.0 5.0 10.0 6.0 0.0 9.0 0.0 4.0 10.0 6.0 4.0 3.0 0.0 1.0 10.0 10.0 2.0 6.0 1.0 3.0 8.0 3.0 1.0 0.0 7.0 10.0 2.0 6.0 6.0 10.0 7.0 8.0 7.0 6.0 5.0 4.0 4.0 7.0 8.0 0.0 6.0 2.0 5.0 -366.0 4.0 4.0 2.0 3.0 5.0 10.0 10.0 5.0 9.0 1.0 9.0 5.0 7.0 8.0 1.0 2.0 1.0 10.0 6.0 1.0 10.0 9.0 2.0 1.0 2.0 8.0 3.0 
5.0 1.0 2.0 5.0 2.0 1.0 7.0 6.0 5.0 3.0 0.0 1.0 7.0 9.0 8.0 6.0 7.0 5.0 3.0 6.0 3.0 9.0 3.0 3.0 8.0 2.0 0.0 4.0 2.0 10.0 8.0 4.0 3.0 2.0 6.0 5.0 3.0 6.0 8.0 3.0 6.0 7.0 3.0 8.0 7.0 4.0 -359.0 8.0 10.0 3.0 8.0 0.0 4.0 9.0 6.0 4.0 7.0 3.0 8.0 5.0 2.0 5.0 8.0 8.0 4.0 7.0 7.0 7.0 7.0 8.0 2.0 0.0 3.0 
6.0 5.0 3.0 10.0 8.0 10.0 3.0 8.0 4.0 10.0 5.0 5.0 2.0 7.0 7.0 6.0 7.0 1.0 6.0 5.0 7.0 4.0 7.0 3.0 3.0 7.0 7.0 10.0 4.0 0.0 7.0 3.0 3.0 6.0 10.0 7.0 10.0 6.0 9.0 6.0 1.0 6.0 5.0 9.0 8.0 4.0 8.0 -400.0 9.0 2.0 3.0 2.0 0.0 8.0 9.0 3.0 9.0 7.0 8.0 5.0 7.0 3.0 2.0 2.0 6.0 8.0 6.0 0.0 5.0 1.0 10.0 1.0 6.0 
7.0 10.0 0.0 10.0 9.0 9.0 6.0 5.0 6.0 8.0 7.0 1.0 1.0 2.0 3.0 2.0 0.0 10.0 4.0 6.0 8.0 6.0 1.0 5.0 3.0 6.0 5.0 7.0 6.0 2.0 4.0 7.0 5.0 0.0 10.0 8.0 5.0 8.0 5.0 4.0 9.0 2.0 2.0 10.0 7.0 2.0 10.0 9.0 -365.0 4.0 8.0 6.0 5.0 3.0 2.0 3.0 1.0 10.0 6.0 2.0 1.0 8.0 0.0 4.0 2.0 6.0 1.0 3.0 5.0 3.0 7.0 8.0 5.0 
1.0 6.0 2.0 7.0 0.0 7.0 9.0 8.0 1.0 3.0 1.0 5.0 6.0 3.0 8.0 8.0 8.0 0.0 6.0 2.0 3.0 5.0 7.0 1.0 3.0 3.0 5.0 9.0 0.0 10.0 4.0 8.0 3.0 1.0 3.0 8.0 4.0 7.0 7.0 2.0 4.0 4.0 3.0 10.0 6.0 3.0 3.0 2.0 4.0 -359.0 0.0 10.0 10.0 7.0 2.0 8.0 5.0 6.0 3.0 10.0 2.0 1.0 6.0 0.0 8.0 3.0 8.0 7.0 8.0 6.0 8.0 9.0 9.0 
2.0 9.0 0.0 9.0 3.0 2.0 8.0 8.0 7.0 4.0 9.0 0.0 5.0 2.0 7.0 6.0 8.0 4.0 8.0 3.0 9.0 1.0 6.0 4.0 1.0 9.0 3.0 6.0 9.0 8.0 7.0 4.0 9.0 8.0 9.0 6.0 7.0 4.0 2.0 10.0 6.0 9.0 6.0 1.0 4.0 5.0 8.0 3.0 8.0 0.0 -386.0 3.0 0.0 7.0 1.0 5.0 9.0 0.0 6.0 6.0 7.0 10.0 8.0 5.0 0.0 5.0 0.0 4.0 0.0 10.0 10.0 9.0 5.0 
7.0 1.0 10.0 2.0 3.0 9.0 1.0 8.0 7.0 6.0 7.0 6.0 3.0 0.0 4.0 9.0 0.0 4.0 8.0 7.0 9.0 3.0 0.0 9.0 2.0 4.0 4.0 2.0 1.0 0.0 2.0 7.0 3.0 6.0 2.0 0.0 4.0 4.0 0.0 9.0 6.0 3.0 7.0 4.0 2.0 10.0 0.0 2.0 6.0 10.0 3.0 -324.0 1.0 3.0 6.0 9.0 6.0 4.0 9.0 6.0 0.0 10.0 3.0 10.0 0.0 4.0 7.0 9.0 0.0 3.0 3.0 1.0 4.0 
3.0 9.0 6.0 2.0 7.0 3.0 10.0 7.0 2.0 2.0 9.0 0.0 1.0 0.0 1.0 8.0 10.0 3.0 7.0 7.0 5.0 1.0 6.0 6.0 6.0 7.0 7.0 8.0 10.0 7.0 0.0 1.0 6.0 7.0 8.0 1.0 4.0 4.0 5.0 6.0 9.0 7.0 10.0 8.0 8.0 10.0 4.0 0.0 5.0 10.0 0.0 1.0 -380.0 3.0 2.0 2.0 7.0 3.0 6.0 10.0 1.0 4.0 1.0 4.0 8.0 9.0 10.0 9.0 9.0 4.0 3.0 4.0 7.0 
1.0 4.0 8.0 4.0 9.0 1.0 8.0 0.0 4.0 3.0 10.0 4.0 6.0 2.0 4.0 4.0 9.0 8.0 7.0 1.0 5.0 5.0 4.0 5.0 5.0 0.0 1.0 5.0 3.0 6.0 3.0 0.0 0.0 9.0 4.0 8.0 9.0 6.0 6.0 5.0 1.0 10.0 1.0 7.0 9.0 5.0 9.0 8.0 3.0 7.0 7.0 3.0 3.0 -351.0 2.0 1.0 5.0 8.0 8.0 5.0 6.0 7.0 10.0 1.0 4.0 5.0 3.0 1.0 3.0 0.0 5.0 9.0 9.0 
10.0 10.0 10.0 3.0 3.0 3.0 8.0 5.0 5.0 9.0 9.0 3.0 3.0 4.0 2.0 5.0 7.0 9.0 9.0 0.0 0.0 4.0 4.0 5.0 0.0 2.0 9.0 5.0 1.0 4.0 1.0 4.0 6.0 6.0 6.0 8.0 8.0 0.0 6.0 9.0 3.0 8.0 10.0 7.0 3.0 9.0 6.0 9.0 2.0 2.0 1.0 6.0 2.0 2.0 -342.0 9.0 1.0 1.0 0.0 2.0 3.0 2.0 9.0 5.0 5.0 1.0 4.0 0.0 2.0 5.0 8.0 4.0 6.0 
6.0 3.0 5.0 7.0 2.0 7.0 2.0 0.0 4.0 9.0 1.0 7.0 1.0 1.0 4.0 0.0 2.0 5.0 2.0 2.0 10.0 1.0 2.0 2.0 0.0 8.0 1.0 4.0 8.0 5.0 2.0 9.0 3.0 4.0 2.0 3.0 9.0 3.0 5.0 9.0 0.0 0.0 2.0 3.0 9.0 1.0 4.0 3.0 3.0 8.0 5.0 9.0 2.0 1.0 9.0 -335.0 7.0 5.0 9.0 10.0 3.0 8.0 3.0 6.0 7.0 4.0 1.0 10.0 10.0 8.0 8.0 9.0 8.0 
9.0 5.0 8.0 5.0 5.0 3.0 0.0 8.0 7.0 7.0 1.0 2.0 8.0 9.0 6.0 7.0 6.0 0.0 8.0 6.0 2.0 10.0 2.0 3.0 3.0 9.0 5.0 5.0 9.0 10.0 7.0 9.0 1.0 6.0 0.0 5.0 4.0 3.0 9.0 9.0 5.0 7.0 7.0 1.0 2.0 9.0 7.0 9.0 1.0 5.0 9.0 6.0 7.0 5.0 1.0 7.0 -381.0 7.0 2.0 2.0 1.0 5.0 10.0 8.0 4.0 3.0 7.0 9.0 6.0 3.0 0.0 4.0 1.0 
9.0 9.0 8.0 7.0 1.0 2.0 10.0 7.0 10.0 2.0 7.0 3.0 3.0 1.0 7.0 1.0 1.0 9.0 5.0 4.0 6.0 9.0 7.0 5.0 2.0 9.0 2.0 9.0 0.0 9.0 3.0 1.0 9.0 9.0 5.0 10.0 1.0 10.0 0.0 1.0 9.0 2.0 10.0 1.0 0.0 5.0 3.0 7.0 10.0 6.0 0.0 4.0 3.0 8.0 1.0 5.0 7.0 -381.0 8.0 3.0 10.0 3.0 3.0 8.0 4.0 6.0 5.0 10.0 8.0 10.0 0.0 7.0 2.0 
6.0 7.0 3.0 10.0 8.0 2.0 3.0 0.0 8.0 1.0 1.0 4.0 9.0 10.0 6.0 2.0 2.0 1.0 1.0 10.0 8.0 5.0 8.0 8.0 7.0 5.0 1.0 8.0 7.0 5.0 10.0 6.0 6.0 2.0 1.0 2.0 5.0 0.0 9.0 10.0 0.0 4.0 1.0 6.0 1.0 7.0 8.0 8.0 6.0 3.0 6.0 9.0 6.0 8.0 0.0 9.0 2.0 8.0 -392.0 10.0 9.0 0.0 9.0 9.0 9.0 2.0 3.0 1.0 5.0 8.0 10.0 9.0 9.0 
9.0 2.0 4.0 0.0 1.0 8.0 7.0 3.0 7.0 6.0 10.0 7.0 10.0 6.0 2.0 4.0 7.0 5.0 6.0 4.0 2.0 6.0 2.0 5.0 9.0 9.0 5.0 4.0 4.0 7.0 0.0 9.0 5.0 8.0 6.0 4.0 7.0 6.0 6.0 10.0 5.0 9.0 8.0 2.0 9.0 8.0 5.0 5.0 2.0 10.0 6.0 6.0 10.0 5.0 2.0 10.0 2.0 3.0 10.0 -407.0 7.0 7.0 5.0 10.0 7.0 7.0 2.0 4.0 1.0 9.0 0.0 2.0 7.0 
8.0 10.0 2.0 8.0 4.0 3.0 10.0 9.0 2.0 2.0 1.0 3.0 2.0 8.0 5.0 6.0 4.0 5.0 4.0 10.0 0.0 1.0 0.0 2.0 8.0 2.0 2.0 1.0 5.0 3.0 1.0 8.0 5.0 7.0 7.0 8.0 8.0 4.0 7.0 5.0 10.0 6.0 6.0 5.0 5.0 1.0 2.0 7.0 1.0 2.0 7.0 0.0 1.0 6.0 3.0 3.0 1.0 10.0 9.0 7.0 -339.0 7.0 0.0 9.0 6.0 10.0 6.0 0.0 7.0 0.0 2.0 10.0 0.0 
0.0 3.0 8.0 6.0 1.0 3.0 6.0 5.0 10.0 5.0 2.0 8.0 4.0 6.0 1.0 9.0 2.0 9.0 8.0 5.0 8.0 5.0 7.0 1.0 6.0 9.0 4.0 9.0 8.0 2.0 6.0 0.0 10.0 5.0 2.0 9.0 3.0 1.0 4.0 2.0 8.0 2.0 4.0 7.0 8.0 2.0 5.0 3.0 8.0 1.0 10.0 10.0 4.0 7.0 2.0 8.0 5.0 3.0 0.0 7.0 7.0 -375.0 9.0 7.0 10.0 3.0 10.0 5.0 0.0 5.0 5.0 2.0 6.0 
7.0 2.0 4.0 5.0 10.0 4.0 3.0 4.0 0.0 1.0 5.0 3.0 10.0 10.0 1.0 4.0 7.0 5.0 3.0 8.0 9.0 7.0 3.0 7.0 3.0 3.0 5.0 5.0 3.0 8.0 8.0 2.0 5.0 6.0 1.0 2.0 10.0 6.0 8.0 2.0 7.0 5.0 10.0 0.0 0.0 1.0 8.0 2.0 0.0 6.0 8.0 3.0 1.0 10.0 9.0 3.0 10.0 3.0 9.0 5.0 0.0 9.0 -353.0 7.0 0.0 6.0 3.0 0.0 2.0 0.0 10.0 9.0 8.0 
7.0 0.0 7.0 8.0 1.0 1.0 1.0 10.0 1.0 1.0 8.0 10.0 4.0 3.0 10.0 5.0 1.0 0.0 3.0 0.0 0.0 4.0 10.0 6.0 1.0 6.0 5.0 3.0 9.0 3.0 7.0 4.0 2.0 9.0 5.0 0.0 0.0 2.0 2.0 1.0 1.0 5.0 4.0 6.0 6.0 10.0 8.0 2.0 4.0 0.0 5.0 10.0 4.0 1.0 5.0 6.0 8.0 8.0 9.0 10.0 9.0 7.0 7.0 -339.0 9.0 3.0 1.0 6.0 5.0 9.0 3.0 7.0 1.0 
9.0 0.0 5.0 4.0 8.0 8.0 5.0 3.0 1.0 8.0 3.0 3.0 5.0 3.0 1.0 6.0 4.0 3.0 2.0 7.0 1.0 4.0 0.0 6.0 7.0 4.0 6.0 1.0 5.0 1.0 9.0 8.0 6.0 9.0 5.0 3.0 3.0 0.0 6.0 10.0 1.0 8.0 5.0 2.0 2.0 6.0 4.0 6.0 2.0 8.0 0.0 0.0 8.0 4.0 5.0 7.0 4.0 4.0 9.0 7.0 6.0 10.0 0.0 9.0 -325.0 5.0 2.0 10.0 4.0 1.0 0.0 3.0 1.0 
9.0 0.0 8.0 3.0 1.0 7.0 2.0 7.0 4.0 1.0 8.0 1.0 5.0 8.0 6.0 2.0 1.0 6.0 4.0 7.0 10.0 9.0 9.0 5.0 2.0 7.0 9.0 0.0 5.0 7.0 3.0 1.0 9.0 10.0 5.0 6.0 4.0 0.0 0.0 8.0 9.0 10.0 8.0 9.0 3.0 1.0 7.0 8.0 6.0 3.0 5.0 4.0 9.0 5.0 1.0 4.0 3.0 6.0 2.0 7.0 10.0 3.0 6.0 3.0 5.0 -367.0 2.0 6.0 8.0 5.0 9.0 0.0 1.0 
4.0 0.0 2.0 8.0 7.0 5.0 2.0 3.0 2.0 2.0 10.0 10.0 9.0 6.0 8.0 7.0 3.0 6.0 8.0 8.0 2.0 0.0 0.0 6.0 4.0 7.0 4.0 2.0 3.0 10.0 1.0 7.0 8.0 3.0 5.0 9.0 10.0 7.0 5.0 5.0 10.0 8.0 0.0 5.0 5.0 10.0 7.0 6.0 1.0 8.0 0.0 7.0 10.0 3.0 4.0 1.0 7.0 5.0 3.0 2.0 6.0 10.0 3.0 1.0 2.0 2.0 -360.0 1.0 6.0 2.0 1.0 7.0 9.0 
9.0 0.0 1.0 1.0 1.0 8.0 8.0 5.0 8.0 0.0 5.0 0.0 3.0 3.0 7.0 3.0 5.0 4.0 8.0 4.0 1.0 9.0 7.0 3.0 7.0 10.0 1.0 0.0 7.0 2.0 2.0 2.0 6.0 9.0 9.0 6.0 3.0 1.0 10.0 7.0 10.0 10.0 6.0 5.0 6.0 9.0 7.0 0.0 3.0 7.0 4.0 9.0 9.0 1.0 0.0 10.0 9.0 10.0 1.0 4.0 0.0 5.0 0.0 6.0 10.0 6.0 1.0 -366.0 0.0 4.0 10.0 10.0 9.0 
1.0 0.0 6.0 2.0 3.0 0.0 4.0 6.0 6.0 4.0 6.0 3.0 10.0 4.0 9.0 6.0 2.0 7.0 2.0 7.0 6.0 5.0 6.0 0.0 10.0 3.0 10.0 9.0 1.0 1.0 10.0 4.0 7.0 1.0 3.0 5.0 6.0 9.0 0.0 10.0 6.0 9.0 6.0 1.0 2.0 2.0 7.0 5.0 5.0 8.0 0.0 0.0 9.0 3.0 2.0 10.0 6.0 8.0 5.0 1.0 7.0 0.0 2.0 5.0 4.0 8.0 6.0 0.0 -343.0 6.0 9.0 0.0 7.0 
5.0 0.0 9.0 1.0 7.0 3.0 10.0 1.0 0.0 0.0 8.0 1.0 4.0 4.0 5.0 7.0 6.0 4.0 4.0 3.0 1.0 3.0 1.0 4.0 7.0 6.0 8.0 8.0 1.0 6.0 6.0 7.0 5.0 10.0 9.0 3.0 3.0 7.0 10.0 6.0 7.0 2.0 8.0 8.0 0.0 1.0 8.0 1.0 3.0 6.0 10.0 3.0 4.0 0.0 5.0 8.0 3.0 10.0 8.0 9.0 0.0 5.0 0.0 9.0 1.0 5.0 2.0 4.0 6.0 -346.0 8.0 3.0 6.0 
3.0 0.0 5.0 5.0 9.0 4.0 0.0 7.0 7.0 6.0 5.0 7.0 2.0 6.0 2.0 3.0 6.0 0.0 2.0 3.0 10.0 2.0 1.0 8.0 4.0 2.0 1.0 7.0 8.0 7.0 0.0 6.0 5.0 2.0 7.0 6.0 3.0 1.0 8.0 1.0 6.0 0.0 4.0 5.0 10.0 2.0 2.0 10.0 7.0 8.0 10.0 3.0 3.0 5.0 8.0 8.0 0.0 0.0 10.0 0.0 2.0 5.0 10.0 3.0 0.0 9.0 1.0 10.0 9.0 8.0 -345.0 9.0 7.0 
9.0 0.0 0.0 6.0 9.0 6.0 5.0 8.0 0.0 1.0 0.0 2.0 4.0 0.0 3.0 2.0 10.0 9.0 0.0 4.0 10.0 9.0 8.0 3.0 10.0 3.0 5.0 10.0 1.0 1.0 4.0 8.0 8.0 8.0 10.0 1.0 9.0 3.0 5.0 6.0 0.0 7.0 10.0 9.0 4.0 8.0 0.0 1.0 8.0 9.0 9.0 1.0 4.0 9.0 4.0 9.0 4.0 7.0 9.0 2.0 10.0 2.0 9.0 7.0 3.0 0.0 7.0 10.0 0.0 3.0 9.0 -379.0 5.0 
3.0 0.0 1.0 10.0 7.0 4.0 4.0 6.0 0.0 2.0 4.0 8.0 7.0 4.0 0.0 8.0 6.0 3.0 0.0 9.0 9.0 1.0 9.0 9.0 8.0 5.0 5.0 10.0 0.0 7.0 3.0 9.0 1.0 0.0 4.0 7.0 4.0 9.0 1.0 9.0 2.0 2.0 4.0 3.0 5.0 3.0 3.0 6.0 5.0 9.0 5.0 4.0 7.0 9.0 6.0 8.0 1.0 2.0 9.0 7.0 0.0 6.0 8.0 1.0 1.0 1.0 9.0 9.0 7.0 6.0 7.0 5.0 -356.0 

